<number of tasks>
20

<cycle time>
1000

<order strength>
0,505


<task times>
1 478
2 314
3 524
4 641
5 261
6 570
7 535
8 449
9 305
10 627
11 465
12 665
13 576
14 439
15 235
16 580
17 451
18 550
19 378
20 466

<precedence relations>
1,3
1,4
1,5
1,6
2,4
2,5
2,6
3,9
4,7
4,8
4,10
4,11
5,11
6,11
7,12
8,13
9,15
10,14
11,15
12,17
13,16
14,17
15,17
15,18
15,19
16,19
17,20

<end>
